0
Node Left Objective IInf Best_Integer Best_Bound ItCnt Gap
0+ 0 nan nan 17080.7259 -1708.0726 nan 110.00%
0+ 0 nan nan -66.0472 -1708.0726 nan ---
0 0 -101.4224 11 -66.0472 -101.4224 102 53.56%
0 2 -101.4224 9 -66.0472 -101.4224 102 53.56%
CPXPARAM_MIP_Cuts_PathCut 0
1
Node Left Objective IInf Best_Integer Best_Bound ItCnt Gap
0+ 0 nan nan 17807.5550 -1780.7555 nan 110.00%
0+ 0 nan nan -370.1081 -1780.7555 nan 381.14%
0 0 -464.8417 18 -370.1081 -464.8417 114 25.60%
0+ 0 nan nan -406.0792 -464.8417 nan 14.47%
0+ 0 nan nan -412.1473 -464.8417 nan 12.79%
0+ 0 nan nan -412.3733 -464.8417 nan 12.72%
0 2 -464.8417 14 -412.3733 -464.8417 114 12.72%
CPXPARAM_MIP_Cuts_PathCut 0
2
Node Left Objective IInf Best_Integer Best_Bound ItCnt Gap
0+ 0 nan nan 21992.9672 -2199.2967 nan 110.00%
0+ 0 nan nan -146.8978 -2199.2967 nan ---
0 0 -150.5448 8 -146.8978 -150.5448 99 2.48%
0 2 -150.5448 7 -146.8978 -150.5448 99 2.48%
CPXPARAM_MIP_Cuts_PathCut 0
3
Node Left Objective IInf Best_Integer Best_Bound ItCnt Gap
0+ 0 nan nan 15130.5599 -1513.0560 nan 110.00%
0+ 0 nan nan -227.8985 -1513.0560 nan 563.92%
0 0 -380.6023 12 -227.8985 -380.6023 122 67.01%
0+ 0 nan nan -352.7968 -380.6023 nan 7.88%
0+ 0 nan nan -363.4104 -380.6023 nan 4.73%
0+ 0 nan nan -364.6262 -380.6023 nan 4.38%
0 2 -380.6023 12 -364.6262 -380.6023 122 4.38%
CPXPARAM_MIP_Cuts_PathCut 0
4
Node Left Objective IInf Best_Integer Best_Bound ItCnt Gap
0+ 0 nan nan 17229.3640 -1722.9364 nan 110.00%
0+ 0 nan nan -76.6411 -1722.9364 nan ---
0 0 -92.4482 11 -76.6411 -92.4482 96 20.62%
0+ 0 nan nan -77.1011 -92.4482 nan 19.91%
0 2 -92.4482 6 -77.1011 -92.4482 96 19.91%
CPXPARAM_MIP_Cuts_PathCut 0
5
Node Left Objective IInf Best_Integer Best_Bound ItCnt Gap
0+ 0 nan nan 19297.4075 -1929.7408 nan 110.00%
0+ 0 nan nan -354.6203 -1929.7408 nan 444.17%
0 0 -499.0768 19 -354.6203 -499.0768 122 40.74%
0+ 0 nan nan -405.8761 -499.0768 nan 22.96%
0+ 0 nan nan -474.1406 -499.0768 nan 5.26%
0 2 -499.0768 11 -474.1406 -499.0768 122 5.26%
CPXPARAM_MIP_Cuts_PathCut 0
6
Node Left Objective IInf Best_Integer Best_Bound ItCnt Gap
0+ 0 nan nan 17283.6857 -1728.3686 nan 110.00%
0+ 0 nan nan -92.9189 -1728.3686 nan ---
0 0 -92.9914 7 -92.9189 -92.9914 106 0.08%
0 2 -92.9914 2 -92.9189 -92.9914 106 0.08%
CPXPARAM_MIP_Cuts_PathCut 0
7
Node Left Objective IInf Best_Integer Best_Bound ItCnt Gap
0+ 0 nan nan 18739.2128 -1873.9213 nan 110.00%
0+ 0 nan nan -357.3303 -1873.9213 nan 424.42%
0 0 -482.3310 15 -357.3303 -482.3310 117 34.98%
0+ 0 nan nan -415.2892 -482.3310 nan 16.14%
0+ 0 nan nan -475.8254 -482.3310 nan 1.37%
0+ 0 nan nan -478.5320 -482.3310 nan 0.79%
0 2 -482.3310 12 -478.5320 -482.3310 117 0.79%
CPXPARAM_MIP_Cuts_PathCut 0
8
Node Left Objective IInf Best_Integer Best_Bound ItCnt Gap
0+ 0 nan nan 20324.0135 -2032.4014 nan 110.00%
0+ 0 nan nan -88.8752 -2032.4014 nan ---
0 0 -105.0691 10 -88.8752 -105.0691 105 18.22%
0+ 0 nan nan -93.0477 -105.0691 nan 12.92%
0 2 -105.0691 9 -93.0477 -105.0691 105 12.92%
CPXPARAM_MIP_Cuts_PathCut 0
9
Node Left Objective IInf Best_Integer Best_Bound ItCnt Gap
0+ 0 nan nan 19574.3912 -1957.4391 nan 110.00%
0+ 0 nan nan -472.8668 -1957.4391 nan 313.95%
0 0 -489.0607 12 -472.8668 -489.0607 98 3.42%
0+ 0 nan nan -474.3577 -489.0607 nan 3.10%
0 2 -489.0607 9 -474.3577 -489.0607 98 3.10%
CPXPARAM_MIP_Cuts_PathCut 0
10
Node Left Objective IInf Best_Integer Best_Bound ItCnt Gap
0+ 0 nan nan 27187.3215 -2718.7321 nan 110.00%
0+ 0 nan nan -162.7792 -2718.7321 nan ---
0 0 -173.7022 7 -162.7792 -173.7022 97 6.71%
0 2 -173.7022 7 -162.7792 -173.7022 97 6.71%
CPXPARAM_MIP_Cuts_PathCut 0
11
Node Left Objective IInf Best_Integer Best_Bound ItCnt Gap
0+ 0 nan nan 22470.7077 -2247.0708 nan 110.00%
0+ 0 nan nan -340.3202 -2247.0708 nan 560.28%
0 0 -575.9502 12 -340.3202 -575.9502 147 69.24%
0+ 0 nan nan -557.5651 -575.9502 nan 3.30%
0+ 0 nan nan -557.9715 -575.9502 nan 3.22%
0+ 0 nan nan -558.8213 -575.9502 nan 3.07%
0+ 0 nan nan -561.5658 -575.9502 nan 2.56%
0 2 -575.9502 11 -561.5658 -575.9502 147 2.56%
CPXPARAM_MIP_Cuts_PathCut 0
12
Node Left Objective IInf Best_Integer Best_Bound ItCnt Gap
0+ 0 nan nan 21290.0070 -2129.0007 nan 110.00%
0+ 0 nan nan -114.1325 -2129.0007 nan ---
0 0 -133.7809 10 -114.1325 -133.7809 93 17.22%
0 2 -133.7809 8 -114.1325 -133.7809 93 17.22%
CPXPARAM_MIP_Cuts_PathCut 0
13
Node Left Objective IInf Best_Integer Best_Bound ItCnt Gap
0+ 0 nan nan 18711.1828 -1871.1183 nan 110.00%
0+ 0 nan nan -213.0855 -1871.1183 nan 778.11%
0 0 -482.2163 20 -213.0855 -482.2163 120 126.30%
0+ 0 nan nan -428.3862 -482.2163 nan 12.57%
0+ 0 nan nan -448.8962 -482.2163 nan 7.42%
0 2 -482.2163 20 -448.8962 -482.2163 120 7.42%
CPXPARAM_MIP_Cuts_PathCut 0
14
Node Left Objective IInf Best_Integer Best_Bound ItCnt Gap
0+ 0 nan nan 22739.1838 -2273.9184 nan 110.00%
0+ 0 nan nan -147.3840 -2273.9184 nan ---
0 0 -148.2727 6 -147.3840 -148.2727 111 0.60%
0 2 -148.2727 8 -147.3840 -148.2727 111 0.60%
CPXPARAM_MIP_Cuts_PathCut 0
15
Node Left Objective IInf Best_Integer Best_Bound ItCnt Gap
0+ 0 nan nan 20293.1236 -2029.3124 nan 110.00%
0+ 0 nan nan -190.5671 -2029.3124 nan 964.88%
0 0 -529.6746 16 -190.5671 -529.6746 118 177.95%
0+ 0 nan nan -507.8189 -529.6746 nan 4.30%
0+ 0 nan nan -510.4804 -529.6746 nan 3.76%
0+ 0 nan nan -517.8642 -529.6746 nan 2.28%
0 2 -529.6746 11 -517.8642 -529.6746 118 2.28%
CPXPARAM_MIP_Cuts_PathCut 0
16
Node Left Objective IInf Best_Integer Best_Bound ItCnt Gap
0+ 0 nan nan 21872.1954 -2187.2195 nan 110.00%
0+ 0 nan nan -111.2879 -2187.2195 nan ---
0 0 -132.1334 9 -111.2879 -132.1334 86 18.73%
0+ 0 nan nan -121.7424 -132.1334 nan 8.54%
0 2 -132.1334 9 -121.7424 -132.1334 86 8.54%
CPXPARAM_MIP_Cuts_PathCut 0
17
Node Left Objective IInf Best_Integer Best_Bound ItCnt Gap
0+ 0 nan nan 16639.6111 -1663.9611 nan 110.00%
0+ 0 nan nan -391.7543 -1663.9611 nan 324.75%
0 0 -412.5998 14 -391.7543 -412.5998 111 5.32%
0+ 0 nan nan -392.4390 -412.5998 nan 5.14%
0+ 0 nan nan -393.0232 -412.5998 nan 4.98%
0 2 -412.5998 10 -393.0232 -412.5998 111 4.98%
CPXPARAM_MIP_Cuts_PathCut 0
18
Node Left Objective IInf Best_Integer Best_Bound ItCnt Gap
0+ 0 nan nan 18821.9021 -1882.1902 nan 110.00%
0+ 0 nan nan -99.4960 -1882.1902 nan ---
0 0 -101.6304 5 -99.4960 -101.6304 95 2.15%
0+ 0 nan nan -99.5703 -101.6304 nan 2.07%
0+ 0 nan nan -101.4597 -101.6304 nan 0.17%
0 2 -101.6304 4 -101.4597 -101.6304 95 0.17%
CPXPARAM_MIP_Cuts_PathCut 0
19
Node Left Objective IInf Best_Integer Best_Bound ItCnt Gap
0+ 0 nan nan 19012.7403 -1901.2740 nan 110.00%
0+ 0 nan nan -227.6407 -1901.2740 nan 735.21%
0 0 -483.7936 12 -227.6407 -483.7936 98 112.53%
0+ 0 nan nan -467.4059 -483.7936 nan 3.51%
0+ 0 nan nan -468.7965 -483.7936 nan 3.20%
0+ 0 nan nan -478.0451 -483.7936 nan 1.20%
0 2 -483.7936 9 -478.0451 -483.7936 98 1.20%
CPXPARAM_MIP_Cuts_PathCut 0
20
Node Left Objective IInf Best_Integer Best_Bound ItCnt Gap
0+ 0 nan nan 15115.0246 -1511.5025 nan 110.00%
0+ 0 nan nan -82.2326 -1511.5025 nan ---
0 0 -92.8758 8 -82.2326 -92.8758 110 12.94%
0 2 -92.8758 8 -82.2326 -92.8758 110 12.94%
CPXPARAM_MIP_Cuts_PathCut 0
21
Node Left Objective IInf Best_Integer Best_Bound ItCnt Gap
0+ 0 nan nan 15333.4248 -1533.3425 nan 110.00%
0+ 0 nan nan -186.6395 -1533.3425 nan 721.55%
0 0 -400.1363 23 -186.6395 -400.1363 129 114.39%
0+ 0 nan nan -329.3240 -400.1363 nan 21.50%
0+ 0 nan nan -379.9862 -400.1363 nan 5.30%
0+ 0 nan nan -381.7451 -400.1363 nan 4.82%
0 2 -400.1363 23 -381.7451 -399.8273 129 4.74%
CPXPARAM_MIP_Cuts_PathCut 0
22
Node Left Objective IInf Best_Integer Best_Bound ItCnt Gap
0+ 0 nan nan 15579.5689 -1557.9569 nan 110.00%
0+ 0 nan nan -95.0211 -1557.9569 nan ---
0 0 -97.5212 4 -95.0211 -97.5212 95 2.63%
0+ 0 nan nan -97.1564 -97.5212 nan 0.38%
0 2 -97.5212 2 -97.1564 -97.5212 95 0.38%
CPXPARAM_MIP_Cuts_PathCut 0
23
Node Left Objective IInf Best_Integer Best_Bound ItCnt Gap
0+ 0 nan nan 16098.7152 -1609.8715 nan 110.00%
0+ 0 nan nan -207.5373 -1609.8715 nan 675.70%
0 0 -422.3078 20 -207.5373 -422.3078 113 103.49%
0+ 0 nan nan -311.6631 -422.3078 nan 35.50%
0+ 0 nan nan -361.8945 -422.3078 nan 16.69%
0+ 0 nan nan -412.2291 -422.3078 nan 2.44%
0 2 -422.3078 20 -412.2291 -422.3059 113 2.44%
CPXPARAM_MIP_Cuts_PathCut 0
24
Node Left Objective IInf Best_Integer Best_Bound ItCnt Gap
0+ 0 nan nan 18436.4445 -1843.6444 nan 110.00%
0+ 0 nan nan -104.2409 -1843.6444 nan ---
0 0 -115.5242 10 -104.2409 -115.5242 101 10.82%
0+ 0 nan nan -112.0044 -115.5242 nan 3.14%
0 2 -115.5242 6 -112.0044 -115.5242 101 3.14%
CPXPARAM_MIP_Cuts_PathCut 0
25
Node Left Objective IInf Best_Integer Best_Bound ItCnt Gap
0+ 0 nan nan 18806.7169 -1880.6717 nan 110.00%
0+ 0 nan nan -296.0108 -1880.6717 nan 535.34%
0 0 -493.2545 22 -296.0108 -493.2545 116 66.63%
0+ 0 nan nan -352.2195 -493.2545 nan 40.04%
0+ 0 nan nan -471.8194 -493.2545 nan 4.54%
0+ 0 nan nan -471.8954 -493.2545 nan 4.53%
0 2 -493.2545 22 -471.8954 -493.2110 116 4.52%
CPXPARAM_MIP_Cuts_PathCut 0
26
Node Left Objective IInf Best_Integer Best_Bound ItCnt Gap
0+ 0 nan nan 18557.2334 -1855.7233 nan 110.00%
0+ 0 nan nan -115.7676 -1855.7233 nan ---
0 0 -116.7233 6 -115.7676 -116.7233 100 0.83%
0+ 0 nan nan -116.6471 -116.7233 nan 0.07%
0 2 -116.7233 2 -116.6471 -116.7233 100 0.07%
CPXPARAM_MIP_Cuts_PathCut 0
27
Node Left Objective IInf Best_Integer Best_Bound ItCnt Gap
0+ 0 nan nan 17107.8930 -1710.7893 nan 110.00%
0+ 0 nan nan -272.6412 -1710.7893 nan 527.49%
0 0 -443.3711 18 -272.6412 -443.3711 123 62.62%
0+ 0 nan nan -320.5251 -443.3711 nan 38.33%
0+ 0 nan nan -433.5126 -443.3711 nan 2.27%
0+ 0 nan nan -433.9520 -443.3711 nan 2.17%
0 2 -443.3711 18 -433.9520 -443.2207 123 2.14%
CPXPARAM_MIP_Cuts_PathCut 0
28
Node Left Objective IInf Best_Integer Best_Bound ItCnt Gap
0+ 0 nan nan 23195.9038 -2319.5904 nan 110.00%
0+ 0 nan nan -120.3208 -2319.5904 nan ---
0 0 -127.4928 8 -120.3208 -127.4928 90 5.96%
0 2 -127.4928 6 -120.3208 -127.4928 90 5.96%
CPXPARAM_MIP_Cuts_PathCut 0
29
Node Left Objective IInf Best_Integer Best_Bound ItCnt Gap
0+ 0 nan nan 18473.6572 -1847.3657 nan 110.00%
0+ 0 nan nan -442.5715 -1847.3657 nan 317.42%
0 0 -449.7435 14 -442.5715 -449.7435 110 1.62%
0 2 -449.7435 6 -442.5715 -449.7435 110 1.62%
CPXPARAM_MIP_Cuts_PathCut 0
30
Node Left Objective IInf Best_Integer Best_Bound ItCnt Gap
0+ 0 nan nan 20012.5374 -2001.2537 nan 110.00%
0+ 0 nan nan -95.2421 -2001.2537 nan ---
0 0 -95.6592 4 -95.2421 -95.6592 103 0.44%
0+ 0 nan nan -95.6568 -95.6592 nan 0.00%
CPXPARAM_MIP_Cuts_PathCut 0
31
Node Left Objective IInf Best_Integer Best_Bound ItCnt Gap
0+ 0 nan nan 20469.5526 -2046.9553 nan 110.00%
0+ 0 nan nan -509.2033 -2046.9553 nan 301.99%
0 0 -509.6204 10 -509.2033 -509.6204 104 0.08%
0+ 0 nan nan -509.6180 -509.6204 nan 0.00%
CPXPARAM_MIP_Cuts_PathCut 0
32
Node Left Objective IInf Best_Integer Best_Bound ItCnt Gap
0+ 0 nan nan 13911.0729 -1391.1073 nan 110.00%
0+ 0 nan nan -59.4883 -1391.1073 nan ---
0 0 -70.6409 6 -59.4883 -70.6409 98 18.75%
0 2 -70.6409 6 -59.4883 -70.6409 98 18.75%
CPXPARAM_MIP_Cuts_PathCut 0
33
Node Left Objective IInf Best_Integer Best_Bound ItCnt Gap
0+ 0 nan nan 16748.4512 -1674.8451 nan 110.00%
0+ 0 nan nan -199.5184 -1674.8451 nan 739.44%
0 0 -433.9837 17 -199.5184 -433.9837 122 117.52%
0+ 0 nan nan -404.0930 -433.9837 nan 7.40%
0+ 0 nan nan -408.1110 -433.9837 nan 6.34%
0 2 -433.9837 15 -408.1110 -433.9837 122 6.34%
CPXPARAM_MIP_Cuts_PathCut 0
34
Node Left Objective IInf Best_Integer Best_Bound ItCnt Gap
0+ 0 nan nan 19055.0102 -1905.5010 nan 110.00%
0+ 0 nan nan -120.9836 -1905.5010 nan ---
0 0 -122.0803 5 -120.9836 -122.0803 92 0.91%
0 1 -122.0803 7 -120.9836 -122.0803 92 0.91%
CPXPARAM_MIP_Cuts_PathCut 0
35
Node Left Objective IInf Best_Integer Best_Bound ItCnt Gap
0+ 0 nan nan 16783.2413 -1678.3241 nan 110.00%
0+ 0 nan nan -154.2101 -1678.3241 nan 988.34%
0 0 -435.0274 15 -154.2101 -435.0274 116 182.10%
0+ 0 nan nan -370.8793 -435.0274 nan 17.30%
0+ 0 nan nan -373.1401 -435.0274 nan 16.59%
0+ 0 nan nan -423.8437 -435.0274 nan 2.64%
0 2 -435.0274 11 -423.8437 -435.0274 116 2.64%
CPXPARAM_MIP_Cuts_PathCut 0
36
Node Left Objective IInf Best_Integer Best_Bound ItCnt Gap
0+ 0 nan nan 22941.7465 -2294.1747 nan 110.00%
0+ 0 nan nan -133.5711 -2294.1747 nan ---
0 0 -148.3782 13 -133.5711 -148.3782 104 11.09%
0 2 -148.3782 6 -133.5711 -148.3782 104 11.09%
CPXPARAM_MIP_Cuts_PathCut 0
37
Node Left Objective IInf Best_Integer Best_Bound ItCnt Gap
0+ 0 nan nan 22253.7712 -2225.3771 nan 110.00%
0+ 0 nan nan -275.0498 -2225.3771 nan 709.08%
0 0 -586.3967 21 -275.0498 -586.3967 122 113.20%
0+ 0 nan nan -346.2278 -586.3967 nan 69.37%
0+ 0 nan nan -490.9932 -586.3967 nan 19.43%
0+ 0 nan nan -561.0070 -586.3967 nan 4.53%
0+ 0 nan nan -562.8276 -586.3967 nan 4.19%
0 2 -586.3967 21 -562.8276 -586.2347 122 4.16%
CPXPARAM_MIP_Cuts_PathCut 0
38
Node Left Objective IInf Best_Integer Best_Bound ItCnt Gap
0+ 0 nan nan 19124.1760 -1912.4176 nan 110.00%
0+ 0 nan nan -107.9750 -1912.4176 nan ---
0 0 -110.2025 8 -107.9750 -110.2025 110 2.06%
0 2 -110.2025 4 -107.9750 -110.2025 110 2.06%
CPXPARAM_MIP_Cuts_PathCut 0
39
Node Left Objective IInf Best_Integer Best_Bound ItCnt Gap
0+ 0 nan nan 22618.2976 -2261.8298 nan 110.00%
0+ 0 nan nan -369.0992 -2261.8298 nan 512.80%
0 0 -597.1756 18 -369.0992 -597.1756 124 61.79%
0+ 0 nan nan -582.1115 -597.1756 nan 2.59%
0+ 0 nan nan -582.5208 -597.1756 nan 2.52%
0 2 -597.1756 18 -582.5208 -597.1090 124 2.50%
CPXPARAM_MIP_Cuts_PathCut 0
